solution status: optimal solution found
objective value:                      168467.43385718
d11(0,0)                                            1 	(obj:0)
d11(1,1)                                            1 	(obj:0)
d11(3,9)                                            1 	(obj:0)
d11(3,11)                                           1 	(obj:0)
d11(3,13)                                           1 	(obj:0)
d11(4,15)                                           1 	(obj:0)
d11(4,17)                                           1 	(obj:0)
d11(4,19)                                           1 	(obj:0)
d11(4,21)                                           1 	(obj:0)
d11(4,23)                                           1 	(obj:0)
d11(4,25)                                           1 	(obj:0)
d11(4,27)                                           1 	(obj:0)
d11(5,31)                                           1 	(obj:0)
d11(5,32)                                           1 	(obj:0)
d11(5,33)                                           1 	(obj:0)
d11(5,34)                                           1 	(obj:0)
d11(5,35)                                           1 	(obj:0)
d11(5,36)                                           1 	(obj:0)
d11(5,37)                                           1 	(obj:0)
d11(5,38)                                           1 	(obj:0)
d11(5,39)                                           1 	(obj:0)
d11(5,40)                                           1 	(obj:0)
d11(5,41)                                           1 	(obj:0)
d11(5,42)                                           1 	(obj:0)
d11(5,43)                                           1 	(obj:0)
d11(5,44)                                           1 	(obj:0)
d11(5,45)                                           1 	(obj:0)
d11(5,46)                                           1 	(obj:0)
d11(5,47)                                           1 	(obj:0)
d11(5,48)                                           1 	(obj:0)
d11(5,49)                                           1 	(obj:0)
d11(5,50)                                           1 	(obj:0)
d11(5,51)                                           1 	(obj:0)
d11(5,52)                                           1 	(obj:0)
d11(5,53)                                           1 	(obj:0)
d11(5,54)                                           1 	(obj:0)
d11(5,55)                                           1 	(obj:0)
d11(5,56)                                           1 	(obj:0)
d11(5,57)                                           1 	(obj:0)
d11(5,58)                                           1 	(obj:0)
d11(5,59)                                           1 	(obj:0)
d11(5,60)                                           1 	(obj:0)
d11(5,61)                                           1 	(obj:0)
d11(5,62)                                           1 	(obj:0)
d12(2,4)                                            1 	(obj:0)
d12(2,6)                                            1 	(obj:0)
d12(3,8)                                            1 	(obj:0)
d12(3,10)                                           1 	(obj:0)
d12(3,12)                                           1 	(obj:0)
d12(3,14)                                           1 	(obj:0)
d12(4,16)                                           1 	(obj:0)
d12(4,18)                                           1 	(obj:0)
d12(4,20)                                           1 	(obj:0)
d12(4,22)                                           1 	(obj:0)
d12(4,24)                                           1 	(obj:0)
d12(4,26)                                           1 	(obj:0)
d12(4,28)                                           1 	(obj:0)
d12(4,30)                                           1 	(obj:0)
d21(2,3)                                            1 	(obj:0)
d21(3,7)                                            1 	(obj:0)
d21(4,15)                                           1 	(obj:0)
d21(5,31)                                           1 	(obj:0)
d21(5,32)                                           1 	(obj:0)
d21(5,33)                                           1 	(obj:0)
d21(5,34)                                           1 	(obj:0)
d21(5,35)                                           1 	(obj:0)
d21(5,36)                                           1 	(obj:0)
d21(5,37)                                           1 	(obj:0)
d21(5,39)                                           1 	(obj:0)
d21(5,40)                                           1 	(obj:0)
d21(5,41)                                           1 	(obj:0)
d21(5,43)                                           1 	(obj:0)
d21(5,47)                                           1 	(obj:0)
d21(5,49)                                           1 	(obj:0)
d21(5,51)                                           1 	(obj:0)
d21(5,55)                                           1 	(obj:0)
d22(4,30)                                           1 	(obj:0)
STE(1,1)                             2688.75010111115 	(obj:0)
STE(0,0)                                         4725 	(obj:0)
STE(1,2)                                         4347 	(obj:0)
STE(2,3)                             2310.75010111115 	(obj:0)
STE(2,4)                             3626.96418698767 	(obj:0)
STE(2,5)                             3969.00000003372 	(obj:0)
STE(2,6)                             5285.21408587651 	(obj:0)
STE(3,7)                             1932.75010111115 	(obj:0)
STE(3,8)                             3248.96418698766 	(obj:0)
STE(3,9)                             3248.96418698767 	(obj:0)
STE(3,10)                            4565.17827286417 	(obj:0)
STE(3,11)                            3591.00000003372 	(obj:0)
STE(3,12)                            4907.21408591023 	(obj:0)
STE(3,13)                            4907.21408587644 	(obj:0)
STE(3,14)                            6223.42817175301 	(obj:0)
STE(4,15)                            1554.75010111115 	(obj:0)
STE(4,16)                            2870.96418698766 	(obj:0)
STE(4,17)                            2870.96418698766 	(obj:0)
STE(4,18)                            4187.17827286417 	(obj:0)
STE(4,19)                            2870.96418698767 	(obj:0)
STE(4,20)                            4187.17827286417 	(obj:0)
STE(4,21)                            4187.17827286417 	(obj:0)
STE(4,22)                            5503.39235874068 	(obj:0)
STE(4,23)                            3213.00000003372 	(obj:0)
STE(4,24)                            4529.21408591023 	(obj:0)
STE(4,25)                            4529.21408591023 	(obj:0)
STE(4,26)                            5845.42817178673 	(obj:0)
STE(4,27)                            4529.21408587644 	(obj:0)
STE(4,28)                            5845.42817175295 	(obj:0)
STE(4,29)                            5845.42817175301 	(obj:0)
STE(4,30)                            7161.64225762952 	(obj:0)
STE(5,31)                           -953.999797811387 	(obj:0)
STE(5,32)                            704.250101077374 	(obj:0)
STE(5,33)                            362.214288065118 	(obj:0)
STE(5,34)                            2020.46418695388 	(obj:0)
STE(5,35)                            362.214288065119 	(obj:0)
STE(5,36)                            2020.46418695388 	(obj:0)
STE(5,37)                            1678.42837394163 	(obj:0)
STE(5,38)                            3336.67827283038 	(obj:0)
STE(5,39)                            362.214288065124 	(obj:0)
STE(5,40)                            2020.46418695392 	(obj:0)
STE(5,41)                            1678.42837394163 	(obj:0)
STE(5,42)                            3336.67827283044 	(obj:0)
STE(5,43)                            1678.42837394163 	(obj:0)
STE(5,44)                            3336.67827283045 	(obj:0)
STE(5,45)                            2994.64245981814 	(obj:0)
STE(5,46)                            4652.89235870696 	(obj:0)
STE(5,47)                            704.250101111183 	(obj:0)
STE(5,48)                                      2362.5 	(obj:0)
STE(5,49)                            2020.46418698769 	(obj:0)
STE(5,50)                            3678.71408587651 	(obj:0)
STE(5,51)                            2020.46418698769 	(obj:0)
STE(5,52)                            3678.71408587651 	(obj:0)
STE(5,53)                            3336.67827286419 	(obj:0)
STE(5,54)                            4994.92817175301 	(obj:0)
STE(5,55)                             2020.4641869539 	(obj:0)
STE(5,56)                            3678.71408584265 	(obj:0)
STE(5,57)                            3336.67827283041 	(obj:0)
STE(5,58)                            4994.92817171923 	(obj:0)
STE(5,59)                            3336.67827283047 	(obj:0)
STE(5,60)                             4994.9281717193 	(obj:0)
STE(5,61)                            4652.89235870698 	(obj:0)
STE(5,62)                            6311.14225759579 	(obj:0)
y1(5,38)                             425.250000030418 	(obj:0)
y1(5,39)                             1917.67490903029 	(obj:0)
y1(5,40)                             425.250000030375 	(obj:0)
y1(5,41)                             1917.67490903029 	(obj:0)
y1(5,42)                             425.250000030359 	(obj:0)
y1(5,43)                             1917.67490903029 	(obj:0)
y1(5,44)                             425.250000030351 	(obj:0)
y1(5,45)                             1917.67490903029 	(obj:0)
y1(5,46)                             425.250000030351 	(obj:0)
y1(5,47)                             1917.67490903029 	(obj:0)
y1(5,48)                             425.250000030351 	(obj:0)
y1(5,49)                             1917.67490903029 	(obj:0)
y1(5,50)                             425.250000030351 	(obj:0)
y1(5,51)                             1917.67490903029 	(obj:0)
y1(5,52)                             425.250000030351 	(obj:0)
y1(5,53)                             1917.67490903029 	(obj:0)
y1(5,54)                             425.250000030351 	(obj:0)
y1(5,55)                             1917.67490903029 	(obj:0)
y1(5,56)                             425.250000030418 	(obj:0)
y1(5,57)                             1917.67490903029 	(obj:0)
y1(5,58)                             425.250000030351 	(obj:0)
y1(5,59)                             1917.67490903029 	(obj:0)
y1(5,60)                             425.250000030344 	(obj:0)
y1(5,61)                             1917.67490903029 	(obj:0)
y1(5,62)                             425.250000030351 	(obj:0)
AVE(1)                                   3216.9117036 	(obj:0)
WB(2)                                692.744255724489 	(obj:0)
AVE(2)                                   3366.1541945 	(obj:0)
WB(3)                                    3515.3966854 	(obj:0)
AVE(3)                                   3515.3966854 	(obj:0)
WB(4)                                3515.39406545541 	(obj:0)
AVE(4)                               3515.39406545826 	(obj:0)
AVE(5)                               3167.15385943327 	(obj:0)
WG(1)                                    3216.9117036 	(obj:10)
WG(2)                                2673.40993877551 	(obj:10)
WG(4)                            2.85098747331269e-009 	(obj:10)
WG(5)                                3167.15385943327 	(obj:10)
BG(1)                                979.380795379592 	(obj:10)
BG(3)                                2673.40993877551 	(obj:10)
BG(4)                                2673.40993877266 	(obj:10)
BG(5)                                1463.06721100578 	(obj:10)
y1(1,1)                              1492.42490899996 	(obj:0)
y1(2,5)                          -3.03512206301093e-008 	(obj:0)
y1(5,31)                             1917.67490903029 	(obj:0)
y1(5,32)                             425.250000030402 	(obj:0)
y1(5,33)                             1917.67490903029 	(obj:0)
y1(5,34)                             425.250000030404 	(obj:0)
y1(5,35)                             1917.67490903029 	(obj:0)
y1(5,36)                             425.250000030404 	(obj:0)
y1(5,37)                             1917.67490903029 	(obj:0)
y2(2,4)                              1385.48851144896 	(obj:0)
y2(2,6)                              1385.48851144895 	(obj:0)
y2(3,8)                              1385.48851144895 	(obj:0)
y2(3,10)                             1385.48851144895 	(obj:0)
y2(3,12)                             1385.48851144895 	(obj:0)
y2(3,14)                             1385.48851144895 	(obj:0)
y2(4,16)                             1385.48851144895 	(obj:0)
y2(4,18)                             1385.48851144896 	(obj:0)
y2(4,20)                             1385.48851144895 	(obj:0)
y2(4,22)                             1385.48851144896 	(obj:0)
y2(4,24)                             1385.48851144895 	(obj:0)
y2(4,26)                             1385.48851144895 	(obj:0)
y2(4,28)                             1385.48851144895 	(obj:0)
y2(4,30)                             1385.48851144895 	(obj:0)
